p cnf 101 13
-20 33 3 59 -4 -55 72 -5 -43 -45 -11 0
-2 -31 -30 -24 43 14 -79 38 3 -1 -99 0
56 -37 -7 65 -62 4 -24 -40 74 76 -63 0
-11 36 2 -22 -79 -7 -32 -67 -37 -29 -25 0
39 8 65 22 69 -18 -3 1 -2 -84 45 0
-20 13 -5 23 9 21 24 -96 1 26 -33 0
73 -24 4 6 25 -2 30 7 -39 84 31 0
96 56 35 -11 -2 -48 -1 -15 -29 19 59 0
28 74 4 45 41 5 -55 -11 -6 -27 100 0
-5 -27 -33 55 -14 22 -35 -32 18 -8 -3 0
-19 34 -21 1 20 8 -11 25 81 -30 14 0
18 -7 78 55 -95 5 -45 -4 -98 -2 27 0
35 -7 16 -44 -57 66 92 -1 -49 4 -61 0
